6404180.0
1 382745.0 825594.0
2 799601.0 1677009.0
3 909247.0 1676628.0
4 729069.0 1523970.0
5 467902.0 943972.0
6 44328.0 97426.0
7 34610.0 69666.0
8 698150.0 1296457.0
9 823460.0 1679693.0
10 903959.0 1902996.0
11 853665.0 1844992.0
12 551830.0 1049289.0
13 610856.0 1252836.0
14 670702.0 1319836.0
15 488960.0 953277.0
16 951111.0 2067538.0
17 323046.0 675367.0
18 446298.0 853655.0
19 931161.0 1826027.0
20 31385.0 65731.0
21 496951.0 901489.0
22 264724.0 577243.0
23 224916.0 466257.0
24 169684.0 369261.0